param n := 60;
param c := 10000
param : V : p w :=
   0	  39	 480
   1	  79	 256
   2	  41	 264
   3	  27	 373
   4	  30	 297
   5	  92	 330
   6	  14	 412
   7	  24	 281
   8	   8	 307
   9	  85	 392
  10	  55	 286
  11	  70	 322
  12	  63	 432
  13	  12	 265
  14	  47	 303
  15	   8	 478
  16	  39	 255
  17	  96	 267
  18	  34	 406
  19	  83	 268
  20	  39	 326
  21	  28	 365
  22	   2	 255
  23	  19	 380
  24	  16	 407
  25	 100	 279
  26	  91	 314
  27	  85	 378
  28	  59	 293
  29	   8	 329
  30	  59	 362
  31	  67	 273
  32	  17	 365
  33	  25	 487
  34	  75	 252
  35	  62	 261
  36	  91	 422
  37	  27	 260
  38	  11	 318
  39	  31	 410
  40	  45	 266
  41	  61	 324
  42	  67	 410
  43	  40	 263
  44	  94	 327
  45	  80	 370
  46	  22	 260
  47	  52	 370
  48	  88	 454
  49	  37	 250
  50	   8	 296
  51	  77	 366
  52	  42	 281
  53	  98	 353
  54	  45	 476
  55	  74	 260
  56	  23	 264
  57	  93	 465
  58	   5	 256
  59	  24	 279
;

set E :=
   0	   1
   0	   2
   0	   3
   0	   4
   0	   5
   0	   8
   0	  10
   0	  12
   0	  15
   0	  16
   0	  20
   0	  22
   0	  24
   0	  26
   0	  28
   0	  29
   0	  30
   0	  31
   0	  32
   0	  33
   0	  37
   0	  40
   0	  41
   0	  43
   0	  44
   0	  45
   0	  46
   0	  47
   0	  48
   0	  51
   0	  55
   0	  56
   0	  57
   1	   3
   1	   6
   1	  10
   1	  12
   1	  16
   1	  17
   1	  19
   1	  20
   1	  22
   1	  25
   1	  26
   1	  27
   1	  28
   1	  30
   1	  33
   1	  34
   1	  38
   1	  39
   1	  41
   1	  42
   1	  44
   1	  48
   1	  50
   1	  51
   1	  52
   1	  57
   2	   7
   2	   8
   2	  11
   2	  12
   2	  13
   2	  15
   2	  17
   2	  19
   2	  20
   2	  21
   2	  22
   2	  23
   2	  27
   2	  28
   2	  29
   2	  30
   2	  33
   2	  37
   2	  38
   2	  39
   2	  40
   2	  41
   2	  43
   2	  44
   2	  46
   2	  47
   2	  49
   2	  51
   2	  52
   2	  54
   2	  56
   3	   4
   3	   6
   3	   7
   3	   8
   3	  13
   3	  14
   3	  17
   3	  22
   3	  25
   3	  26
   3	  27
   3	  28
   3	  30
   3	  35
   3	  37
   3	  38
   3	  39
   3	  41
   3	  43
   3	  47
   3	  49
   3	  51
   3	  54
   3	  55
   3	  58
   3	  59
   4	   6
   4	   7
   4	   8
   4	  14
   4	  17
   4	  19
   4	  20
   4	  21
   4	  22
   4	  24
   4	  25
   4	  28
   4	  29
   4	  30
   4	  31
   4	  32
   4	  39
   4	  41
   4	  43
   4	  45
   4	  46
   4	  50
   4	  51
   4	  52
   4	  55
   4	  58
   4	  59
   5	   8
   5	   9
   5	  11
   5	  12
   5	  13
   5	  14
   5	  18
   5	  19
   5	  20
   5	  21
   5	  24
   5	  25
   5	  26
   5	  32
   5	  33
   5	  34
   5	  35
   5	  36
   5	  37
   5	  39
   5	  40
   5	  41
   5	  44
   5	  46
   5	  48
   5	  49
   5	  50
   5	  54
   5	  55
   5	  56
   5	  57
   5	  58
   6	   7
   6	  10
   6	  13
   6	  15
   6	  16
   6	  17
   6	  18
   6	  20
   6	  21
   6	  22
   6	  24
   6	  28
   6	  29
   6	  30
   6	  32
   6	  33
   6	  35
   6	  36
   6	  38
   6	  40
   6	  41
   6	  43
   6	  44
   6	  48
   6	  51
   6	  52
   6	  56
   6	  59
   7	   8
   7	  10
   7	  11
   7	  12
   7	  13
   7	  18
   7	  19
   7	  20
   7	  21
   7	  27
   7	  37
   7	  41
   7	  43
   7	  45
   7	  48
   7	  50
   7	  52
   7	  53
   7	  54
   7	  56
   7	  57
   7	  58
   8	   9
   8	  10
   8	  11
   8	  12
   8	  13
   8	  14
   8	  15
   8	  18
   8	  19
   8	  20
   8	  22
   8	  23
   8	  24
   8	  25
   8	  26
   8	  27
   8	  28
   8	  32
   8	  33
   8	  38
   8	  40
   8	  42
   8	  44
   8	  45
   8	  46
   8	  47
   8	  48
   8	  51
   8	  52
   8	  54
   8	  55
   8	  58
   9	  12
   9	  14
   9	  16
   9	  19
   9	  20
   9	  21
   9	  22
   9	  24
   9	  25
   9	  26
   9	  28
   9	  32
   9	  36
   9	  37
   9	  38
   9	  40
   9	  41
   9	  43
   9	  44
   9	  45
   9	  46
   9	  48
   9	  49
   9	  50
   9	  51
   9	  53
   9	  56
   9	  57
   9	  58
  10	  12
  10	  13
  10	  15
  10	  16
  10	  19
  10	  20
  10	  23
  10	  24
  10	  25
  10	  26
  10	  30
  10	  31
  10	  34
  10	  35
  10	  37
  10	  38
  10	  39
  10	  41
  10	  42
  10	  45
  10	  46
  10	  51
  10	  52
  10	  58
  10	  59
  11	  15
  11	  16
  11	  17
  11	  18
  11	  19
  11	  25
  11	  28
  11	  29
  11	  31
  11	  32
  11	  35
  11	  38
  11	  40
  11	  41
  11	  42
  11	  43
  11	  45
  11	  46
  11	  48
  11	  49
  11	  50
  11	  52
  11	  54
  11	  55
  11	  56
  12	  15
  12	  18
  12	  20
  12	  21
  12	  27
  12	  28
  12	  31
  12	  35
  12	  41
  12	  42
  12	  44
  12	  45
  12	  46
  12	  47
  12	  49
  12	  50
  12	  52
  12	  54
  12	  56
  12	  57
  12	  59
  13	  14
  13	  15
  13	  17
  13	  18
  13	  22
  13	  24
  13	  28
  13	  29
  13	  35
  13	  37
  13	  38
  13	  39
  13	  40
  13	  44
  13	  45
  13	  48
  13	  52
  13	  58
  14	  17
  14	  23
  14	  24
  14	  25
  14	  27
  14	  28
  14	  29
  14	  30
  14	  32
  14	  33
  14	  41
  14	  48
  14	  49
  14	  50
  14	  54
  14	  56
  14	  57
  14	  59
  15	  17
  15	  18
  15	  19
  15	  20
  15	  23
  15	  26
  15	  27
  15	  29
  15	  31
  15	  32
  15	  39
  15	  42
  15	  43
  15	  44
  15	  47
  15	  48
  15	  49
  15	  50
  15	  51
  15	  54
  15	  55
  15	  57
  15	  58
  15	  59
  16	  17
  16	  18
  16	  19
  16	  20
  16	  21
  16	  24
  16	  26
  16	  28
  16	  30
  16	  32
  16	  34
  16	  37
  16	  38
  16	  42
  16	  44
  16	  45
  16	  47
  16	  48
  16	  51
  16	  53
  16	  55
  16	  56
  16	  57
  16	  59
  17	  18
  17	  19
  17	  21
  17	  22
  17	  23
  17	  25
  17	  26
  17	  27
  17	  29
  17	  30
  17	  31
  17	  32
  17	  33
  17	  34
  17	  35
  17	  36
  17	  37
  17	  38
  17	  40
  17	  42
  17	  43
  17	  44
  17	  46
  17	  48
  17	  52
  17	  54
  17	  56
  17	  57
  17	  59
  18	  19
  18	  21
  18	  22
  18	  24
  18	  25
  18	  27
  18	  30
  18	  31
  18	  32
  18	  33
  18	  34
  18	  37
  18	  39
  18	  40
  18	  42
  18	  44
  18	  45
  18	  47
  18	  49
  18	  51
  18	  56
  18	  58
  19	  21
  19	  22
  19	  23
  19	  27
  19	  28
  19	  30
  19	  31
  19	  33
  19	  35
  19	  36
  19	  37
  19	  38
  19	  39
  19	  44
  19	  46
  19	  47
  19	  48
  19	  50
  19	  59
  20	  25
  20	  31
  20	  34
  20	  35
  20	  38
  20	  40
  20	  41
  20	  45
  20	  46
  20	  47
  20	  48
  20	  50
  20	  53
  20	  54
  20	  55
  20	  57
  20	  59
  21	  25
  21	  26
  21	  28
  21	  29
  21	  30
  21	  31
  21	  33
  21	  34
  21	  36
  21	  38
  21	  39
  21	  42
  21	  44
  21	  48
  21	  49
  21	  52
  21	  53
  21	  54
  21	  56
  21	  57
  21	  58
  22	  24
  22	  25
  22	  27
  22	  30
  22	  33
  22	  37
  22	  39
  22	  42
  22	  44
  22	  45
  22	  47
  22	  49
  22	  53
  22	  59
  23	  24
  23	  25
  23	  27
  23	  28
  23	  29
  23	  31
  23	  32
  23	  33
  23	  36
  23	  37
  23	  38
  23	  40
  23	  42
  23	  43
  23	  50
  23	  51
  23	  52
  23	  55
  23	  57
  23	  59
  24	  25
  24	  27
  24	  31
  24	  33
  24	  35
  24	  36
  24	  37
  24	  38
  24	  39
  24	  41
  24	  42
  24	  43
  24	  46
  24	  47
  24	  48
  24	  49
  24	  51
  24	  54
  24	  55
  24	  56
  24	  57
  25	  30
  25	  34
  25	  38
  25	  39
  25	  43
  25	  44
  25	  47
  25	  48
  25	  49
  25	  50
  25	  51
  25	  55
  25	  56
  25	  57
  25	  58
  26	  28
  26	  31
  26	  32
  26	  33
  26	  34
  26	  35
  26	  38
  26	  39
  26	  40
  26	  41
  26	  44
  26	  45
  26	  46
  26	  47
  26	  49
  26	  51
  26	  52
  26	  53
  26	  54
  26	  56
  26	  57
  26	  59
  27	  31
  27	  33
  27	  34
  27	  35
  27	  36
  27	  37
  27	  39
  27	  42
  27	  43
  27	  44
  27	  46
  27	  50
  27	  52
  27	  54
  27	  57
  27	  58
  28	  29
  28	  33
  28	  36
  28	  42
  28	  44
  28	  45
  28	  46
  28	  48
  28	  51
  28	  54
  28	  55
  28	  58
  28	  59
  29	  31
  29	  32
  29	  33
  29	  35
  29	  37
  29	  40
  29	  45
  29	  48
  29	  49
  29	  50
  29	  51
  29	  52
  29	  53
  29	  56
  30	  31
  30	  35
  30	  36
  30	  41
  30	  44
  30	  45
  30	  47
  30	  49
  30	  50
  30	  52
  30	  54
  30	  55
  30	  56
  30	  57
  31	  35
  31	  36
  31	  38
  31	  40
  31	  42
  31	  46
  31	  47
  31	  51
  31	  53
  31	  54
  31	  55
  31	  57
  31	  58
  31	  59
  32	  33
  32	  34
  32	  37
  32	  39
  32	  41
  32	  42
  32	  43
  32	  44
  32	  46
  32	  48
  32	  49
  32	  50
  32	  51
  32	  53
  32	  55
  32	  57
  32	  58
  32	  59
  33	  34
  33	  35
  33	  36
  33	  37
  33	  42
  33	  43
  33	  45
  33	  48
  33	  51
  33	  52
  33	  53
  33	  56
  34	  35
  34	  36
  34	  45
  34	  46
  34	  48
  34	  53
  34	  54
  34	  55
  34	  57
  34	  58
  34	  59
  35	  37
  35	  39
  35	  40
  35	  42
  35	  48
  35	  50
  35	  51
  35	  53
  35	  54
  35	  56
  35	  57
  35	  58
  36	  37
  36	  40
  36	  42
  36	  44
  36	  50
  36	  53
  36	  54
  36	  56
  36	  58
  36	  59
  37	  38
  37	  41
  37	  42
  37	  46
  37	  48
  37	  50
  37	  53
  37	  54
  37	  55
  37	  58
  38	  43
  38	  44
  38	  45
  38	  46
  38	  48
  38	  49
  38	  54
  38	  56
  38	  57
  38	  58
  38	  59
  39	  40
  39	  42
  39	  45
  39	  46
  39	  48
  39	  49
  39	  57
  39	  58
  39	  59
  40	  41
  40	  46
  40	  49
  40	  50
  40	  51
  40	  54
  40	  56
  40	  57
  41	  43
  41	  44
  41	  45
  41	  46
  41	  47
  41	  48
  41	  49
  41	  51
  41	  53
  41	  58
  41	  59
  42	  48
  42	  53
  42	  55
  42	  57
  42	  58
  42	  59
  43	  44
  43	  45
  43	  46
  43	  50
  43	  51
  43	  52
  43	  53
  43	  54
  43	  55
  43	  57
  43	  59
  44	  45
  44	  47
  44	  49
  44	  50
  44	  52
  44	  53
  44	  56
  44	  57
  44	  58
  44	  59
  45	  46
  45	  47
  45	  48
  45	  54
  45	  55
  45	  58
  45	  59
  46	  47
  46	  49
  46	  52
  46	  55
  46	  57
  46	  59
  47	  48
  47	  49
  47	  50
  47	  53
  47	  56
  47	  57
  47	  58
  48	  50
  48	  52
  48	  57
  48	  58
  49	  52
  49	  53
  49	  54
  49	  56
  50	  51
  50	  52
  50	  53
  50	  54
  50	  56
  50	  59
  51	  55
  51	  58
  52	  54
  52	  56
  52	  57
  52	  58
  53	  54
  53	  55
  53	  59
  54	  57
  54	  59
  55	  57
  56	  57
  56	  58
  56	  59
;
